(set-info :status unknown)
(declare-const symbol_225 (_ BitVec 32))
(declare-const symbol_140 (_ BitVec 32))
(declare-const symbol_498 (_ BitVec 32))
(declare-const symbol_381 (_ BitVec 32))
(declare-const symbol_422 (_ BitVec 32))
(declare-const symbol_510 (_ BitVec 32))
(declare-const symbol_25 (_ BitVec 32))
(declare-const symbol_568 (_ BitVec 32))
(declare-const symbol_562 (_ BitVec 32))
(declare-const symbol_484 (_ BitVec 32))
(declare-const symbol_366 (_ BitVec 32))
(declare-const symbol_338 (_ BitVec 32))
(declare-const symbol_73 (_ BitVec 32))
(declare-const symbol_110 (_ BitVec 32))
(declare-const symbol_91 (_ BitVec 32))
(declare-const symbol_198 (_ BitVec 32))
(declare-const symbol_58 (_ BitVec 32))
(declare-const symbol_388 (_ BitVec 32))
(declare-const symbol_296 (_ BitVec 32))
(declare-const symbol_247 (_ BitVec 32))
(declare-const symbol_178 (_ BitVec 32))
(declare-const symbol_272 (_ BitVec 32))
(declare-const symbol_167 (_ BitVec 32))
(declare-const symbol_620 (_ BitVec 32))
(declare-const symbol_171 (_ BitVec 32))
(declare-const symbol_662 (_ BitVec 32))
(declare-const symbol_241 (_ BitVec 32))
(declare-const symbol_623 (_ BitVec 32))
(declare-const symbol_621 (_ BitVec 32))
(declare-const symbol_29 (_ BitVec 32))
(declare-const symbol_23 (_ BitVec 32))
(declare-const symbol_251 (_ BitVec 32))
(declare-const symbol_584 (_ BitVec 32))
(declare-const symbol_398 (_ BitVec 32))
(declare-const symbol_103 (_ BitVec 32))
(declare-const symbol_396 (_ BitVec 32))
(declare-const symbol_377 (_ BitVec 32))
(declare-const symbol_255 (_ BitVec 32))
(declare-const symbol_52 (_ BitVec 32))
(declare-const symbol_16 (_ BitVec 32))
(declare-const symbol_465 (_ BitVec 32))
(declare-const symbol_95 (_ BitVec 32))
(declare-const symbol_608 (_ BitVec 32))
(declare-const symbol_428 (_ BitVec 32))
(declare-const symbol_1 (_ BitVec 32))
(declare-const symbol_370 (_ BitVec 32))
(declare-const symbol_264 (_ BitVec 32))
(declare-const symbol_185 (_ BitVec 32))
(declare-const symbol_441 (_ BitVec 32))
(declare-const symbol_418 (_ BitVec 32))
(declare-const symbol_281 (_ BitVec 32))
(declare-const symbol_357 (_ BitVec 32))
(declare-const symbol_481 (_ BitVec 32))
(declare-const symbol_234 (_ BitVec 32))
(declare-const symbol_62 (_ BitVec 32))
(declare-const symbol_594 (_ BitVec 32))
(declare-const symbol_566 (_ BitVec 32))
(declare-const symbol_200 (_ BitVec 32))
(declare-const symbol_66 (_ BitVec 32))
(declare-const symbol_463 (_ BitVec 32))
(declare-const symbol_429 (_ BitVec 32))
(declare-const symbol_343 (_ BitVec 32))
(declare-const symbol_180 (_ BitVec 32))
(declare-const symbol_136 (_ BitVec 32))
(declare-const symbol_590 (_ BitVec 32))
(declare-const symbol_455 (_ BitVec 32))
(declare-const symbol_316 (_ BitVec 32))
(declare-const symbol_101 (_ BitVec 32))
(declare-const symbol_277 (_ BitVec 32))
(declare-const symbol_20 (_ BitVec 32))
(declare-const symbol_641 (_ BitVec 32))
(declare-const symbol_340 (_ BitVec 32))
(declare-const symbol_194 (_ BitVec 32))
(declare-const symbol_659 (_ BitVec 32))
(declare-const symbol_477 (_ BitVec 32))
(declare-const symbol_459 (_ BitVec 32))
(declare-const symbol_400 (_ BitVec 32))
(declare-const symbol_504 (_ BitVec 32))
(declare-const symbol_490 (_ BitVec 32))
(declare-const symbol_426 (_ BitVec 32))
(declare-const symbol_12 (_ BitVec 32))
(declare-const symbol_215 (_ BitVec 32))
(declare-const symbol_70 (_ BitVec 32))
(declare-const symbol_309 (_ BitVec 32))
(declare-const symbol_506 (_ BitVec 32))
(declare-const symbol_187 (_ BitVec 32))
(declare-const symbol_353 (_ BitVec 32))
(declare-const symbol_55 (_ BitVec 32))
(declare-const symbol_627 (_ BitVec 32))
(declare-const symbol_361 (_ BitVec 32))
(declare-const symbol_347 (_ BitVec 32))
(declare-const symbol_227 (_ BitVec 32))
(declare-const symbol_134 (_ BitVec 32))
(declare-const symbol_112 (_ BitVec 32))
(declare-const symbol_616 (_ BitVec 32))
(declare-const symbol_578 (_ BitVec 32))
(declare-const symbol_570 (_ BitVec 32))
(declare-const symbol_410 (_ BitVec 32))
(declare-const symbol_461 (_ BitVec 32))
(declare-const symbol_372 (_ BitVec 32))
(declare-const symbol_431 (_ BitVec 32))
(declare-const symbol_557 (_ BitVec 32))
(declare-const symbol_314 (_ BitVec 32))
(declare-const symbol_349 (_ BitVec 32))
(declare-const symbol_394 (_ BitVec 32))
(declare-const symbol_482 (_ BitVec 32))
(declare-const symbol_538 (_ BitVec 32))
(declare-const symbol_486 (_ BitVec 32))
(declare-const symbol_204 (_ BitVec 32))
(declare-const symbol_116 (_ BitVec 32))
(declare-const symbol_85 (_ BitVec 32))
(declare-const symbol_635 (_ BitVec 32))
(declare-const symbol_514 (_ BitVec 32))
(declare-const symbol_345 (_ BitVec 32))
(declare-const symbol_4 (_ BitVec 32))
(declare-const symbol_424 (_ BitVec 32))
(declare-const symbol_530 (_ BitVec 32))
(declare-const symbol_451 (_ BitVec 32))
(declare-const symbol_561 (_ BitVec 32))
(declare-const symbol_368 (_ BitVec 32))
(declare-const symbol_544 (_ BitVec 32))
(declare-const symbol_230 (_ BitVec 32))
(declare-const symbol_161 (_ BitVec 32))
(declare-const symbol_192 (_ BitVec 32))
(declare-const symbol_525 (_ BitVec 32))
(declare-const symbol_473 (_ BitVec 32))
(declare-const symbol_108 (_ BitVec 32))
(declare-const symbol_3 (_ BitVec 32))
(declare-const symbol_631 (_ BitVec 32))
(declare-const symbol_126 (_ BitVec 32))
(declare-const symbol_196 (_ BitVec 32))
(declare-const symbol_648 (_ BitVec 32))
(declare-const symbol_546 (_ BitVec 32))
(declare-const symbol_173 (_ BitVec 32))
(declare-const symbol_97 (_ BitVec 32))
(declare-const symbol_591 (_ BitVec 32))
(declare-const symbol_390 (_ BitVec 32))
(declare-const symbol_258 (_ BitVec 32))
(declare-const symbol_359 (_ BitVec 32))
(declare-const symbol_576 (_ BitVec 32))
(declare-const symbol_266 (_ BitVec 32))
(declare-const symbol_518 (_ BitVec 32))
(declare-const symbol_469 (_ BitVec 32))
(declare-const symbol_120 (_ BitVec 32))
(declare-const symbol_307 (_ BitVec 32))
(declare-const symbol_174 (_ BitVec 32))
(declare-const symbol_612 (_ BitVec 32))
(declare-const symbol_551 (_ BitVec 32))
(declare-const symbol_142 (_ BitVec 32))
(declare-const symbol_89 (_ BitVec 32))
(declare-const symbol_606 (_ BitVec 32))
(declare-const symbol_286 (_ BitVec 32))
(declare-const symbol_124 (_ BitVec 32))
(declare-const symbol_206 (_ BitVec 32))
(declare-const symbol_643 (_ BitVec 32))
(declare-const symbol_268 (_ BitVec 32))
(declare-const symbol_138 (_ BitVec 32))
(declare-const symbol_8 (_ BitVec 32))
(declare-const symbol_114 (_ BitVec 32))
(declare-const symbol_245 (_ BitVec 32))
(declare-const symbol_637 (_ BitVec 32))
(declare-const symbol_386 (_ BitVec 32))
(declare-const symbol_603 (_ BitVec 32))
(declare-const symbol_420 (_ BitVec 32))
(declare-const symbol_312 (_ BitVec 32))
(declare-const symbol_653 (_ BitVec 32))
(declare-const symbol_536 (_ BitVec 32))
(declare-const symbol_475 (_ BitVec 32))
(declare-const symbol_35 (_ BitVec 32))
(declare-const symbol_588 (_ BitVec 32))
(declare-const symbol_78 (_ BitVec 32))
(declare-const symbol_298 (_ BitVec 32))
(declare-const symbol_520 (_ BitVec 32))
(declare-const symbol_189 (_ BitVec 32))
(declare-const symbol_42 (_ BitVec 32))
(declare-const symbol_614 (_ BitVec 32))
(declare-const symbol_574 (_ BitVec 32))
(declare-const symbol_447 (_ BitVec 32))
(declare-const symbol_625 (_ BitVec 32))
(declare-const symbol_549 (_ BitVec 32))
(declare-const symbol_471 (_ BitVec 32))
(declare-const symbol_496 (_ BitVec 32))
(declare-const symbol_106 (_ BitVec 32))
(declare-const symbol_553 (_ BitVec 32))
(declare-const symbol_130 (_ BitVec 32))
(declare-const symbol_610 (_ BitVec 32))
(declare-const symbol_243 (_ BitVec 32))
(declare-const symbol_488 (_ BitVec 32))
(declare-const symbol_433 (_ BitVec 32))
(declare-const symbol_128 (_ BitVec 32))
(declare-const symbol_77 (_ BitVec 32))
(declare-const symbol_60 (_ BitVec 32))
(declare-const symbol_657 (_ BitVec 32))
(declare-const symbol_327 (_ BitVec 32))
(declare-const symbol_301 (_ BitVec 32))
(declare-const symbol_284 (_ BitVec 32))
(declare-const symbol_647 (_ BitVec 32))
(declare-const symbol_664 (_ BitVec 32))
(declare-const symbol_443 (_ BitVec 32))
(declare-const symbol_323 (_ BitVec 32))
(declare-const symbol_564 (_ BitVec 32))
(declare-const symbol_528 (_ BitVec 32))
(declare-const symbol_405 (_ BitVec 32))
(declare-const symbol_47 (_ BitVec 32))
(declare-const symbol_516 (_ BitVec 32))
(declare-const symbol_540 (_ BitVec 32))
(declare-const symbol_288 (_ BitVec 32))
(declare-const symbol_14 (_ BitVec 32))
(declare-const symbol_408 (_ BitVec 32))
(declare-const symbol_221 (_ BitVec 32))
(declare-const symbol_467 (_ BitVec 32))
(declare-const symbol_22 (_ BitVec 32))
(declare-const symbol_580 (_ BitVec 32))
(declare-const symbol_439 (_ BitVec 32))
(declare-const symbol_219 (_ BitVec 32))
(declare-const symbol_228 (_ BitVec 32))
(declare-const symbol_80 (_ BitVec 32))
(declare-const symbol_336 (_ BitVec 32))
(declare-const symbol_50 (_ BitVec 32))
(declare-const symbol_542 (_ BitVec 32))
(declare-const symbol_449 (_ BitVec 32))
(declare-const symbol_40 (_ BitVec 32))
(declare-const symbol_318 (_ BitVec 32))
(declare-const symbol_639 (_ BitVec 32))
(declare-const symbol_494 (_ BitVec 32))
(declare-const symbol_629 (_ BitVec 32))
(declare-const symbol_598 (_ BitVec 32))
(declare-const symbol_93 (_ BitVec 32))
(declare-const symbol_416 (_ BitVec 32))
(declare-const symbol_151 (_ BitVec 32))
(declare-const symbol_31 (_ BitVec 32))
(declare-const symbol_404 (_ BitVec 32))
(declare-const symbol_239 (_ BitVec 32))
(declare-const symbol_645 (_ BitVec 32))
(declare-const symbol_601 (_ BitVec 32))
(declare-const symbol_320 (_ BitVec 32))
(declare-const symbol_208 (_ BitVec 32))
(declare-const symbol_362 (_ BitVec 32))
(declare-const symbol_39 (_ BitVec 32))
(declare-const symbol_159 (_ BitVec 32))
(declare-const symbol_290 (_ BitVec 32))
(declare-const symbol_223 (_ BitVec 32))
(declare-const symbol_633 (_ BitVec 32))
(declare-const symbol_379 (_ BitVec 32))
(declare-const symbol_232 (_ BitVec 32))
(declare-const symbol_155 (_ BitVec 32))
(declare-const symbol_68 (_ BitVec 32))
(declare-const symbol_305 (_ BitVec 32))
(declare-const symbol_586 (_ BitVec 32))
(declare-const symbol_512 (_ BitVec 32))
(declare-const symbol_163 (_ BitVec 32))
(declare-const symbol_523 (_ BitVec 32))
(declare-const symbol_260 (_ BitVec 32))
(declare-const symbol_330 (_ BitVec 32))
(declare-const symbol_294 (_ BitVec 32))
(declare-const symbol_27 (_ BitVec 32))
(declare-const symbol_655 (_ BitVec 32))
(declare-const symbol_283 (_ BitVec 32))
(declare-const symbol_303 (_ BitVec 32))
(declare-const symbol_383 (_ BitVec 32))
(declare-const symbol_118 (_ BitVec 32))
(declare-const symbol_559 (_ BitVec 32))
(declare-const symbol_153 (_ BitVec 32))
(declare-const symbol_149 (_ BitVec 32))
(declare-const symbol_527 (_ BitVec 32))
(declare-const symbol_414 (_ BitVec 32))
(declare-const symbol_33 (_ BitVec 32))
(declare-const symbol_457 (_ BitVec 32))
(declare-const symbol_209 (_ BitVec 32))
(declare-const symbol_45 (_ BitVec 32))
(declare-const symbol_132 (_ BitVec 32))
(declare-const symbol_384 (_ BitVec 32))
(declare-const symbol_334 (_ BitVec 32))
(declare-const symbol_182 (_ BitVec 32))
(declare-const symbol_253 (_ BitVec 32))
(declare-const symbol_157 (_ BitVec 32))
(declare-const symbol_596 (_ BitVec 32))
(declare-const symbol_435 (_ BitVec 32))
(declare-const symbol_374 (_ BitVec 32))
(declare-const symbol_168 (_ BitVec 32))
(declare-const symbol_618 (_ BitVec 32))
(declare-const symbol_143 (_ BitVec 32))
(declare-const symbol_10 (_ BitVec 32))
(declare-const symbol_532 (_ BitVec 32))
(declare-const symbol_75 (_ BitVec 32))
(declare-const symbol_249 (_ BitVec 32))
(declare-const symbol_0 (_ BitVec 32))
(declare-const symbol_392 (_ BitVec 32))
(declare-const symbol_82 (_ BitVec 32))
(declare-const symbol_521 (_ BitVec 32))
(declare-const symbol_65 (_ BitVec 32))
(declare-const symbol_270 (_ BitVec 32))
(declare-const symbol_651 (_ BitVec 32))
(declare-const symbol_479 (_ BitVec 32))
(declare-const symbol_325 (_ BitVec 32))
(declare-const symbol_262 (_ BitVec 32))
(declare-const symbol_236 (_ BitVec 32))
(declare-const symbol_105 (_ BitVec 32))
(declare-const symbol_6 (_ BitVec 32))
(declare-const symbol_582 (_ BitVec 32))
(declare-const symbol_572 (_ BitVec 32))
(declare-const symbol_453 (_ BitVec 32))
(declare-const symbol_202 (_ BitVec 32))
(declare-const symbol_83 (_ BitVec 32))
(declare-const symbol_508 (_ BitVec 32))
(declare-const symbol_177 (_ BitVec 32))
(declare-const symbol_122 (_ BitVec 32))
(declare-const symbol_18 (_ BitVec 32))
(declare-const symbol_555 (_ BitVec 32))
(declare-const symbol_211 (_ BitVec 32))
(declare-const symbol_445 (_ BitVec 32))
(declare-const symbol_402 (_ BitVec 32))
(declare-const symbol_275 (_ BitVec 32))
(declare-const symbol_37 (_ BitVec 32))
(declare-const symbol_364 (_ BitVec 32))
(declare-const symbol_534 (_ BitVec 32))
(declare-const symbol_190 (_ BitVec 32))
(declare-const symbol_99 (_ BitVec 32))
(declare-const symbol_412 (_ BitVec 32))
(declare-const symbol_502 (_ BitVec 32))
(declare-const symbol_661 (_ BitVec 32))
(declare-const symbol_292 (_ BitVec 32))
(declare-const symbol_600 (_ BitVec 32))
(declare-const symbol_217 (_ BitVec 32))
(declare-const symbol_500 (_ BitVec 32))
(declare-const symbol_279 (_ BitVec 32))
(declare-const symbol_165 (_ BitVec 32))
(declare-const symbol_492 (_ BitVec 32))
(declare-const symbol_146 (_ BitVec 32))
(declare-const symbol_376 (_ BitVec 32))
(declare-const symbol_437 (_ BitVec 32))
(declare-const symbol_332 (_ BitVec 32))
(declare-const symbol_87 (_ BitVec 32))
(declare-const symbol_355 (_ BitVec 32))
(declare-const symbol_351 (_ BitVec 32))
(declare-const symbol_213 (_ BitVec 32))
(assert (bvsge symbol_664 (_ bv0 32)))
(assert (not (bvsge symbol_662 (_ bv0 32))))
(assert (not (bvsge symbol_661 (_ bv0 32))))
(assert (not (bvsge symbol_659 (_ bv0 32))))
(assert (not (bvsge symbol_657 (_ bv0 32))))
(assert (not (bvsge symbol_655 (_ bv0 32))))
(assert (not (bvsge symbol_653 (_ bv0 32))))
(assert (not (bvsge symbol_651 (_ bv0 32))))
(assert (not (bvsge symbol_648 (_ bv0 32))))
(assert (not (bvsge symbol_647 (_ bv0 32))))
(assert (not (bvsge symbol_645 (_ bv0 32))))
(assert (not (bvsge symbol_643 (_ bv0 32))))
(assert (not (bvsge symbol_641 (_ bv0 32))))
(assert (not (bvsge symbol_639 (_ bv0 32))))
(assert (not (bvsge symbol_637 (_ bv0 32))))
(assert (not (bvsge symbol_635 (_ bv0 32))))
(assert (not (bvsge symbol_633 (_ bv0 32))))
(assert (not (bvsge symbol_631 (_ bv0 32))))
(assert (not (bvsge symbol_629 (_ bv0 32))))
(assert (not (bvsge symbol_627 (_ bv0 32))))
(assert (not (bvsge symbol_625 (_ bv0 32))))
(assert (not (bvsge symbol_623 (_ bv0 32))))
(assert (not (bvsge symbol_621 (_ bv0 32))))
(assert (not (bvsge symbol_620 (_ bv0 32))))
(assert (not (bvsge symbol_618 (_ bv0 32))))
(assert (not (bvsge symbol_616 (_ bv0 32))))
(assert (not (bvsge symbol_614 (_ bv0 32))))
(assert (not (bvsge symbol_612 (_ bv0 32))))
(assert (not (bvsge symbol_610 (_ bv0 32))))
(assert (not (bvsge symbol_608 (_ bv0 32))))
(assert (not (bvsge symbol_606 (_ bv0 32))))
(assert (not (bvsge symbol_603 (_ bv0 32))))
(assert (not (bvsge symbol_601 (_ bv0 32))))
(assert (not (bvsge symbol_600 (_ bv0 32))))
(assert (not (bvsge symbol_598 (_ bv0 32))))
(assert (not (bvsge symbol_596 (_ bv0 32))))
(assert (not (bvsge symbol_594 (_ bv0 32))))
(assert (not (bvsge symbol_591 (_ bv0 32))))
(assert (not (bvsge symbol_590 (_ bv0 32))))
(assert (not (bvsge symbol_588 (_ bv0 32))))
(assert (not (bvsge symbol_586 (_ bv0 32))))
(assert (not (bvsge symbol_584 (_ bv0 32))))
(assert (not (bvsge symbol_582 (_ bv0 32))))
(assert (not (bvsge symbol_580 (_ bv0 32))))
(assert (not (bvsge symbol_578 (_ bv0 32))))
(assert (not (bvsge symbol_576 (_ bv0 32))))
(assert (not (bvsge symbol_574 (_ bv0 32))))
(assert (not (bvsge symbol_572 (_ bv0 32))))
(assert (not (bvsge symbol_570 (_ bv0 32))))
(assert (not (bvsge symbol_568 (_ bv0 32))))
(assert (not (bvsge symbol_566 (_ bv0 32))))
(assert (not (bvsge symbol_564 (_ bv0 32))))
(assert (not (bvsge symbol_562 (_ bv0 32))))
(assert (not (bvsge symbol_561 (_ bv0 32))))
(assert (not (bvsge symbol_559 (_ bv0 32))))
(assert (not (bvsge symbol_557 (_ bv0 32))))
(assert (not (bvsge symbol_555 (_ bv0 32))))
(assert (not (bvsge symbol_553 (_ bv0 32))))
(assert (not (bvsge symbol_551 (_ bv0 32))))
(assert (not (bvsge symbol_549 (_ bv0 32))))
(assert (not (bvsge symbol_546 (_ bv0 32))))
(assert (not (bvsge symbol_544 (_ bv0 32))))
(assert (not (bvsge symbol_542 (_ bv0 32))))
(assert (not (bvsge symbol_540 (_ bv0 32))))
(assert (not (bvsge symbol_538 (_ bv0 32))))
(assert (not (bvsge symbol_536 (_ bv0 32))))
(assert (not (bvsge symbol_534 (_ bv0 32))))
(assert (not (bvsge symbol_532 (_ bv0 32))))
(assert (not (bvsge symbol_530 (_ bv0 32))))
(assert (not (bvsge symbol_528 (_ bv0 32))))
(assert (not (bvsge symbol_527 (_ bv0 32))))
(assert (not (bvsge symbol_525 (_ bv0 32))))
(assert (not (bvsge symbol_523 (_ bv0 32))))
(assert (not (bvsge symbol_521 (_ bv0 32))))
(assert (not (bvsge symbol_520 (_ bv0 32))))
(assert (not (bvsge symbol_518 (_ bv0 32))))
(assert (not (bvsge symbol_516 (_ bv0 32))))
(assert (not (bvsge symbol_514 (_ bv0 32))))
(assert (not (bvsge symbol_512 (_ bv0 32))))
(assert (not (bvsge symbol_510 (_ bv0 32))))
(assert (not (bvsge symbol_508 (_ bv0 32))))
(assert (not (bvsge symbol_506 (_ bv0 32))))
(assert (not (bvsge symbol_504 (_ bv0 32))))
(assert (not (bvsge symbol_502 (_ bv0 32))))
(assert (not (bvsge symbol_500 (_ bv0 32))))
(assert (not (bvsge symbol_498 (_ bv0 32))))
(assert (not (bvsge symbol_496 (_ bv0 32))))
(assert (not (bvsge symbol_494 (_ bv0 32))))
(assert (not (bvsge symbol_492 (_ bv0 32))))
(assert (not (bvsge symbol_490 (_ bv0 32))))
(assert (not (bvsge symbol_488 (_ bv0 32))))
(assert (not (bvsge symbol_486 (_ bv0 32))))
(assert (not (bvsge symbol_484 (_ bv0 32))))
(assert (not (bvsge symbol_482 (_ bv0 32))))
(assert (not (bvsge symbol_481 (_ bv0 32))))
(assert (not (bvsge symbol_479 (_ bv0 32))))
(assert (not (bvsge symbol_477 (_ bv0 32))))
(assert (not (bvsge symbol_475 (_ bv0 32))))
(assert (not (bvsge symbol_473 (_ bv0 32))))
(assert (not (bvsge symbol_471 (_ bv0 32))))
(assert (not (bvsge symbol_469 (_ bv0 32))))
(assert (not (bvsge symbol_467 (_ bv0 32))))
(assert (not (bvsge symbol_465 (_ bv0 32))))
(assert (not (bvsge symbol_463 (_ bv0 32))))
(assert (not (bvsge symbol_461 (_ bv0 32))))
(assert (not (bvsge symbol_459 (_ bv0 32))))
(assert (not (bvsge symbol_457 (_ bv0 32))))
(assert (not (bvsge symbol_455 (_ bv0 32))))
(assert (not (bvsge symbol_453 (_ bv0 32))))
(assert (not (bvsge symbol_451 (_ bv0 32))))
(assert (not (bvsge symbol_449 (_ bv0 32))))
(assert (not (bvsge symbol_447 (_ bv0 32))))
(assert (not (bvsge symbol_445 (_ bv0 32))))
(assert (not (bvsge symbol_443 (_ bv0 32))))
(assert (not (bvsge symbol_441 (_ bv0 32))))
(assert (not (bvsge symbol_439 (_ bv0 32))))
(assert (not (bvsge symbol_437 (_ bv0 32))))
(assert (not (bvsge symbol_435 (_ bv0 32))))
(assert (not (bvsge symbol_433 (_ bv0 32))))
(assert (not (bvsge symbol_431 (_ bv0 32))))
(assert (not (bvsge symbol_429 (_ bv0 32))))
(assert (not (bvsge symbol_428 (_ bv0 32))))
(assert (not (bvsge symbol_426 (_ bv0 32))))
(assert (not (bvsge symbol_424 (_ bv0 32))))
(assert (not (bvsge symbol_422 (_ bv0 32))))
(assert (not (bvsge symbol_420 (_ bv0 32))))
(assert (not (bvsge symbol_418 (_ bv0 32))))
(assert (not (bvsge symbol_416 (_ bv0 32))))
(assert (not (bvsge symbol_414 (_ bv0 32))))
(assert (not (bvsge symbol_412 (_ bv0 32))))
(assert (not (bvsge symbol_410 (_ bv0 32))))
(assert (not (bvsge symbol_408 (_ bv0 32))))
(assert (not (bvsge symbol_405 (_ bv0 32))))
(assert (not (bvsge symbol_404 (_ bv0 32))))
(assert (not (bvsge symbol_402 (_ bv0 32))))
(assert (not (bvsge symbol_400 (_ bv0 32))))
(assert (not (bvsge symbol_398 (_ bv0 32))))
(assert (not (bvsge symbol_396 (_ bv0 32))))
(assert (not (bvsge symbol_394 (_ bv0 32))))
(assert (not (bvsge symbol_392 (_ bv0 32))))
(assert (not (bvsge symbol_390 (_ bv0 32))))
(assert (not (bvsge symbol_388 (_ bv0 32))))
(assert (not (bvsge symbol_386 (_ bv0 32))))
(assert (not (bvsge symbol_384 (_ bv0 32))))
(assert (not (bvsge symbol_383 (_ bv0 32))))
(assert (not (bvsge symbol_381 (_ bv0 32))))
(assert (not (bvsge symbol_379 (_ bv0 32))))
(assert (not (bvsge symbol_377 (_ bv0 32))))
(assert (not (bvsge symbol_376 (_ bv0 32))))
(assert (not (bvsge symbol_374 (_ bv0 32))))
(assert (not (bvsge symbol_372 (_ bv0 32))))
(assert (not (bvsge symbol_370 (_ bv0 32))))
(assert (not (bvsge symbol_368 (_ bv0 32))))
(assert (not (bvsge symbol_366 (_ bv0 32))))
(assert (not (bvsge symbol_364 (_ bv0 32))))
(assert (not (bvsge symbol_362 (_ bv0 32))))
(assert (not (bvsge symbol_361 (_ bv0 32))))
(assert (not (bvsge symbol_359 (_ bv0 32))))
(assert (not (bvsge symbol_357 (_ bv0 32))))
(assert (not (bvsge symbol_355 (_ bv0 32))))
(assert (not (bvsge symbol_353 (_ bv0 32))))
(assert (not (bvsge symbol_351 (_ bv0 32))))
(assert (not (bvsge symbol_349 (_ bv0 32))))
(assert (not (bvsge symbol_347 (_ bv0 32))))
(assert (not (bvsge symbol_345 (_ bv0 32))))
(assert (not (bvsge symbol_343 (_ bv0 32))))
(assert (not (bvsge symbol_340 (_ bv0 32))))
(assert (not (bvsge symbol_338 (_ bv0 32))))
(assert (not (bvsge symbol_336 (_ bv0 32))))
(assert (not (bvsge symbol_334 (_ bv0 32))))
(assert (not (bvsge symbol_332 (_ bv0 32))))
(assert (not (bvsge symbol_330 (_ bv0 32))))
(assert (not (bvsge symbol_327 (_ bv0 32))))
(assert (not (bvsge symbol_325 (_ bv0 32))))
(assert (not (bvsge symbol_323 (_ bv0 32))))
(assert (not (bvsge symbol_320 (_ bv0 32))))
(assert (not (bvsge symbol_318 (_ bv0 32))))
(assert (not (bvsge symbol_316 (_ bv0 32))))
(assert (not (bvsge symbol_314 (_ bv0 32))))
(assert (not (bvsge symbol_312 (_ bv0 32))))
(assert (not (bvsge symbol_309 (_ bv0 32))))
(assert (not (bvsge symbol_307 (_ bv0 32))))
(assert (not (bvsge symbol_305 (_ bv0 32))))
(assert (not (bvsge symbol_303 (_ bv0 32))))
(assert (not (bvsge symbol_301 (_ bv0 32))))
(assert (not (bvsge symbol_298 (_ bv0 32))))
(assert (not (bvsge symbol_296 (_ bv0 32))))
(assert (not (bvsge symbol_294 (_ bv0 32))))
(assert (not (bvsge symbol_292 (_ bv0 32))))
(assert (not (bvsge symbol_290 (_ bv0 32))))
(assert (not (bvsge symbol_288 (_ bv0 32))))
(assert (not (bvsge symbol_286 (_ bv0 32))))
(assert (not (bvsge symbol_284 (_ bv0 32))))
(assert (not (bvsge symbol_283 (_ bv0 32))))
(assert (not (bvsge symbol_281 (_ bv0 32))))
(assert (not (bvsge symbol_279 (_ bv0 32))))
(assert (not (bvsge symbol_277 (_ bv0 32))))
(assert (not (bvsge symbol_275 (_ bv0 32))))
(assert (not (bvsge symbol_272 (_ bv0 32))))
(assert (not (bvsge symbol_270 (_ bv0 32))))
(assert (not (bvsge symbol_268 (_ bv0 32))))
(assert (not (bvsge symbol_266 (_ bv0 32))))
(assert (not (bvsge symbol_264 (_ bv0 32))))
(assert (not (bvsge symbol_262 (_ bv0 32))))
(assert (not (bvsge symbol_260 (_ bv0 32))))
(assert (not (bvsge symbol_258 (_ bv0 32))))
(assert (not (bvsge symbol_255 (_ bv0 32))))
(assert (not (bvsge symbol_253 (_ bv0 32))))
(assert (not (bvsge symbol_251 (_ bv0 32))))
(assert (not (bvsge symbol_249 (_ bv0 32))))
(assert (not (bvsge symbol_247 (_ bv0 32))))
(assert (not (bvsge symbol_245 (_ bv0 32))))
(assert (not (bvsge symbol_243 (_ bv0 32))))
(assert (not (bvsge symbol_241 (_ bv0 32))))
(assert (not (bvsge symbol_239 (_ bv0 32))))
(assert (not (bvsge symbol_236 (_ bv0 32))))
(assert (not (bvsge symbol_234 (_ bv0 32))))
(assert (not (bvsge symbol_232 (_ bv0 32))))
(assert (not (bvsge symbol_230 (_ bv0 32))))
(assert (not (bvsge symbol_228 (_ bv0 32))))
(assert (not (bvsge symbol_227 (_ bv0 32))))
(assert (not (bvsge symbol_225 (_ bv0 32))))
(assert (not (bvsge symbol_223 (_ bv0 32))))
(assert (not (bvsge symbol_221 (_ bv0 32))))
(assert (not (bvsge symbol_219 (_ bv0 32))))
(assert (not (bvsge symbol_217 (_ bv0 32))))
(assert (not (bvsge symbol_215 (_ bv0 32))))
(assert (not (bvsge symbol_213 (_ bv0 32))))
(assert (not (bvsge symbol_211 (_ bv0 32))))
(assert (not (bvsge symbol_209 (_ bv0 32))))
(assert (not (bvsge symbol_208 (_ bv0 32))))
(assert (not (bvsge symbol_206 (_ bv0 32))))
(assert (not (bvsge symbol_204 (_ bv0 32))))
(assert (not (bvsge symbol_202 (_ bv0 32))))
(assert (not (bvsge symbol_200 (_ bv0 32))))
(assert (not (bvsge symbol_198 (_ bv0 32))))
(assert (not (bvsge symbol_196 (_ bv0 32))))
(assert (not (bvsge symbol_194 (_ bv0 32))))
(assert (not (bvsge symbol_192 (_ bv0 32))))
(assert (not (bvsge symbol_190 (_ bv0 32))))
(assert (not (bvsge symbol_189 (_ bv0 32))))
(assert (not (bvsge symbol_187 (_ bv0 32))))
(assert (not (bvsge symbol_185 (_ bv0 32))))
(assert (not (bvsge symbol_182 (_ bv0 32))))
(assert (not (bvsge symbol_180 (_ bv0 32))))
(assert (not (bvsge symbol_178 (_ bv0 32))))
(assert (not (bvsge symbol_177 (_ bv0 32))))
(assert (not (bvsge symbol_174 (_ bv0 32))))
(assert (not (bvsge symbol_173 (_ bv0 32))))
(assert (not (bvsge symbol_171 (_ bv0 32))))
(assert (not (bvsge symbol_168 (_ bv0 32))))
(assert (not (bvsge symbol_167 (_ bv0 32))))
(assert (not (bvsge symbol_165 (_ bv0 32))))
(assert (not (bvsge symbol_163 (_ bv0 32))))
(assert (not (bvsge symbol_161 (_ bv0 32))))
(assert (not (bvsge symbol_159 (_ bv0 32))))
(assert (not (bvsge symbol_157 (_ bv0 32))))
(assert (not (bvsge symbol_155 (_ bv0 32))))
(assert (not (bvsge symbol_153 (_ bv0 32))))
(assert (not (bvsge symbol_151 (_ bv0 32))))
(assert (not (bvsge symbol_149 (_ bv0 32))))
(assert (not (bvsge symbol_146 (_ bv0 32))))
(assert (not (bvsge symbol_143 (_ bv0 32))))
(assert (not (bvsge symbol_142 (_ bv0 32))))
(assert (not (bvsge symbol_140 (_ bv0 32))))
(assert (not (bvsge symbol_138 (_ bv0 32))))
(assert (not (bvsge symbol_136 (_ bv0 32))))
(assert (not (bvsge symbol_134 (_ bv0 32))))
(assert (not (bvsge symbol_132 (_ bv0 32))))
(assert (not (bvsge symbol_130 (_ bv0 32))))
(assert (not (bvsge symbol_128 (_ bv0 32))))
(assert (not (bvsge symbol_126 (_ bv0 32))))
(assert (not (bvsge symbol_124 (_ bv0 32))))
(assert (not (bvsge symbol_122 (_ bv0 32))))
(assert (not (bvsge symbol_120 (_ bv0 32))))
(assert (not (bvsge symbol_118 (_ bv0 32))))
(assert (not (bvsge symbol_116 (_ bv0 32))))
(assert (not (bvsge symbol_114 (_ bv0 32))))
(assert (not (bvsge symbol_112 (_ bv0 32))))
(assert (not (bvsge symbol_110 (_ bv0 32))))
(assert (not (bvsge symbol_108 (_ bv0 32))))
(assert (not (bvsge symbol_106 (_ bv0 32))))
(assert (not (bvsge symbol_105 (_ bv0 32))))
(assert (not (bvsge symbol_103 (_ bv0 32))))
(assert (not (bvsge symbol_101 (_ bv0 32))))
(assert (not (bvsge symbol_99 (_ bv0 32))))
(assert (not (bvsge symbol_97 (_ bv0 32))))
(assert (not (bvsge symbol_95 (_ bv0 32))))
(assert (not (bvsge symbol_93 (_ bv0 32))))
(assert (not (bvsge symbol_91 (_ bv0 32))))
(assert (not (bvsge symbol_89 (_ bv0 32))))
(assert (not (bvsge symbol_87 (_ bv0 32))))
(assert (not (bvsge symbol_85 (_ bv0 32))))
(assert (not (bvsge symbol_83 (_ bv0 32))))
(assert (not (bvsge symbol_82 (_ bv0 32))))
(assert (not (bvsge symbol_80 (_ bv0 32))))
(assert (not (bvsge symbol_78 (_ bv0 32))))
(assert (not (bvsge symbol_77 (_ bv0 32))))
(assert (not (bvsge symbol_75 (_ bv0 32))))
(assert (not (bvsge symbol_73 (_ bv0 32))))
(assert (not (bvsge symbol_70 (_ bv0 32))))
(assert (not (bvsge symbol_68 (_ bv0 32))))
(assert (not (bvsge symbol_66 (_ bv0 32))))
(assert (not (bvsge symbol_65 (_ bv0 32))))
(assert (not (bvsge symbol_62 (_ bv0 32))))
(assert (not (bvsge symbol_60 (_ bv0 32))))
(assert (not (bvsge symbol_58 (_ bv0 32))))
(assert (not (bvsge symbol_55 (_ bv0 32))))
(assert (not (bvsge symbol_52 (_ bv0 32))))
(assert (not (bvsge symbol_50 (_ bv0 32))))
(assert (not (bvsge symbol_47 (_ bv0 32))))
(assert (not (bvsge symbol_45 (_ bv0 32))))
(assert (not (bvsge symbol_42 (_ bv0 32))))
(assert (not (bvsge symbol_40 (_ bv0 32))))
(assert (not (bvsge symbol_39 (_ bv0 32))))
(assert (not (bvsge symbol_37 (_ bv0 32))))
(assert (not (bvsge symbol_35 (_ bv0 32))))
(assert (not (bvsge symbol_33 (_ bv0 32))))
(assert (not (bvsge symbol_31 (_ bv0 32))))
(assert (not (bvsge symbol_29 (_ bv0 32))))
(assert (not (bvsge symbol_27 (_ bv0 32))))
(assert (not (bvsge symbol_25 (_ bv0 32))))
(assert (not (bvsge symbol_23 (_ bv0 32))))
(assert (not (bvsge symbol_22 (_ bv0 32))))
(assert (not (bvsge symbol_20 (_ bv0 32))))
(assert (not (bvsge symbol_18 (_ bv0 32))))
(assert (not (bvsge symbol_16 (_ bv0 32))))
(assert (not (bvsge symbol_14 (_ bv0 32))))
(assert (not (bvsge symbol_12 (_ bv0 32))))
(assert (not (bvsge symbol_10 (_ bv0 32))))
(assert (not (bvsge symbol_8 (_ bv0 32))))
(assert (not (bvsge symbol_6 (_ bv0 32))))
(assert (not (bvsge symbol_4 (_ bv0 32))))
(assert (not (bvsge symbol_3 (_ bv0 32))))
(assert (not (bvsge symbol_1 (_ bv0 32))))
(assert (not (bvsge symbol_0 (_ bv0 32))))
(check-sat)